
  12   12
  10   10   10   10   10   10   10   10   10   10   10   10

   0   0   0   0   0   0   0   0   0   0   0   0   0   4 2 3 4 11 
   3   0   1   0   1   0   0   0   1   1   1   0   1   4 10 9 8 5 
   5   0   0   0   6   1   0   0   7   0   0   0   7   4 9 8 7 5 
   1   0   0   0   0   0   1   0   9   6  10   1   0   2 7 6 
   2   0   0   0   0   0   0   0   0   0   4   6   0   1 6 
   9   1   0   5   9   0   0   0   0   0   0   0   0   1 12
   8   0   9   0   0   0   9   1   0   0   0   5   8   1 12
   6   6   0   0   0   0   0   0   0   8   0   0   0   1 12
   2   0   0   0   0   9   0   0   3   0   0   8   0   1 12
  10   0   0   0   4   0   0   9   0   5   0   0   4   1 12
   7   8   0   0   0   0   0   0   0   0   0   0   0   1 12
   0   0   0   0   0   0   0   0   0   0   0   0   0   0 
